c description: Random 3-CNF over 15 variables and 30 clauses
c generator: CNFgen (0.9.0)
c copyright: (C) 2012-2020 Massimo Lauria <massimo.lauria@uniroma1.it>
c url: https://massimolauria.net/cnfgen
c
p cnf 15 30
6 9 13 0
-1 2 12 0
-4 -7 -13 0
10 -13 15 0
6 8 -11 0
-6 12 13 0
1 6 15 0
-1 -3 15 0
-7 -11 -14 0
1 -11 14 0
2 7 13 0
4 6 11 0
1 -10 13 0
3 -7 -11 0
-9 13 -15 0
7 8 -14 0
6 -7 -14 0
-6 -10 -14 0
5 -7 12 0
3 5 -12 0
-1 -4 -11 0
3 -4 9 0
6 -8 -13 0
-4 9 -13 0
-1 7 -13 0
2 4 -13 0
3 7 -14 0
3 13 -14 0
-1 4 7 0
-1 -3 -12 0